p tw 175 205
1 2
2 88
3 14
4 5
5 6
5 8
6 7
7 84
8 9
9 10
10 11
11 12
12 13
12 15
13 15
14 25
15 16
16 17
17 18
18 19
19 20
19 31
20 21
21 22
21 75
22 23
23 24
23 33
24 26
25 36
25 47
26 27
27 28
27 42
28 29
29 30
29 54
30 75
31 32
32 84
33 34
34 35
35 37
35 40
36 84
37 38
38 39
39 40
39 75
40 41
41 84
42 43
43 44
44 45
44 52
45 46
46 48
47 58
48 49
48 52
49 50
50 51
51 52
51 75
52 53
53 84
54 55
55 56
56 57
56 68
57 59
58 69
59 60
60 61
60 68
61 62
62 63
63 64
63 68
64 65
65 66
66 67
67 68
67 71
68 70
69 80
70 84
71 72
72 73
73 74
74 75
75 76
76 77
76 82
77 78
78 79
79 81
80 86
81 82
82 83
83 84
84 85
86 87
86 104
87 89
88 99
89 90
90 91
91 92
92 93
92 95
93 94
94 95
94 102
95 96
96 97
97 98
98 100
99 110
100 101
101 104
102 103
103 104
104 105
105 106
106 107
107 108
108 109
109 111
110 121
111 112
111 128
112 113
113 114
114 115
114 128
115 116
116 117
117 118
118 119
119 120
120 122
121 132
122 123
123 124
124 125
125 126
126 127
127 106
128 129
129 130
129 155
130 131
130 155
131 133
132 143
133 134
134 135
134 155
135 136
136 137
137 138
138 139
139 140
139 142
140 141
141 145
142 144
143 154
144 145
145 146
146 147
147 148
148 149
149 150
150 151
151 152
152 153
153 106
154 165
155 156
156 157
157 158
157 172
158 159
159 160
160 161
160 162
161 84
162 163
163 164
164 166
165 3
166 167
167 168
168 169
169 170
170 171
171 154
172 173
173 174
173 8
174 175
174 6
175 4
